% demand
num_movements = 31;
loading_factor = [1400, 1400, 1600, 1750, 1150, 1350, 900, 1250, 1550, 1350, 800, 1850, 1500, 1850, 1600, 1300, 1550, 1200, 1400, 950, 1900, 900, 1600, 2000, 1800, 1900, 1150, 1350, 1200, 1400, 1800];
pickup_time = [0, 0, 0, 0, 0, 0, 0, 0, 2, 2, 2, 3, 4, 4, 4, 4, 4, 4, 5, 5, 5, 5, 5, 5, 6, 6, 6, 6, 6, 6, 8];
delivery_time = [1, 2, 1, 2, 4, 1, 1, 1, 3, 3, 4, 5, 5, 5, 5, 5, 6, 5, 6, 6, 11, 6, 6, 6, 8, 11, 11, 11, 11, 10, 11];

% transporter definition
total_capacity = 11000;
num_decks = 4;
capacity = [3000, 3000, 1000, 4000];

% ways out of decks
num_ways_out = 2;
paths_out = array3d(decks, ways_out, decks, [
% ways out of deck d1
2, 4, 0, 0, 3, 4, 0, 0, 

% ways out of deck d2
4, 0, 0, 0, 0, 0, 0, 0,	

% ways out of deck d3
4, 0, 0, 0, 0, 0, 0, 0,	

% ways out of deck d4
0, 0, 0, 0,	0, 0, 0, 0,	

]);

